c ---- [ banner ] ------------------------------------------------------------
c
c Kissat SAT Solver
c 
c Copyright (c) 2021-2024 Armin Biere University of Freiburg
c Copyright (c) 2019-2021 Armin Biere Johannes Kepler University Linz
c 
c Version 4.0.1 43f02cf3e992cb44653b35e5cb26f93281552ae0
c gcc (Ubuntu 13.2.0-23ubuntu4) 13.2.0 -W -Wall -O3 -DNDEBUG
c Thu Sep 12 12:27:46 CEST 2024 Linux abryzen9 6.8.0-41-generic x86_64
c
c ---- [ parsing ] -----------------------------------------------------------
c
c opened and reading DIMACS file:
c
c   /data/artifact/AMulet2.0_artifact/exp4/cnf_compress2rs_64/64_64_U_SP_CWT_BK_GenMul_compress2rs.cnf
c
c parsed 'p cnf 39247 152129' header
c closing input after reading 2973556 bytes (3 MB)
c finished parsing after 0.03 seconds
c
c ---- [ options ] -----------------------------------------------------------
c
c --stable=0                       (different from default '1')
c
c ---- [ solving ] -----------------------------------------------------------
c
c  seconds switched rate     size/glue tier1  binary           remaining
c         MB reductions conflicts size  tier2     irredundant
c          level restarts redundant glue  trail           variables
c
c *  0.03 12 0 0 0  0 0   0   0 0.0 0 0 0 0 0% 39272 112855 39244 100%
c (  0.05 13 0 0 0  0 0   0   0 0.0 0 0 0 0 0% 39272 112855 39244 100%
c .  0.06 13 0 0 0  0 0   0   0 0.0 0 0 0 0 0% 39268 112855 39244 100%
c c  0.13 24 0 0 0  0 0   0   0 0.0 0 0 0 0 0% 48126 97044 34813 89%
c d  0.14 24 0 0 0  0 0   0   0 0.0 0 0 0 0 0% 39264 97044 34813 89%
c =  0.18 24 0 0 0  0 0   0   0 0.0 0 0 0 0 0% 38212 97044 34704 88%
c d  0.19 24 0 0 0  0 0   0   0 0.0 0 0 0 0 0% 37994 97044 34704 88%
c f  0.27 22 0 0 0  0 0   0   0 0.0 0 0 0 0 0% 39469 94539 35696 91%
c e  0.39 29 0 0 0  0 0   0   0 0.0 0 0 0 0 0% 23016 103231 26843 68%
c )  0.39 29 0 0 0  0 0   0   0 0.0 0 0 0 0 0% 23016 103231 26843 68%
c {  0.42 29 0 0 0  0 0   0   0 0.0 0 0 2 6 0% 23016 103231 26843 68%
c -  0.61 29 98 0 1 185 19 1000 771 2.7 11 4 3 6 15% 23087 103225 26843 68%
c -  0.89 29 118 0 2 343 23 2001 1546 2.8 13 5 3 8 21% 23131 103223 26843 68%
c c  1.13 23 154 0 2 415 27 2505 1986 3.2 16 5 3 8 22% 23155 103215 26840 68%
c d  1.14 23 154 0 2 415 27 2505 1986 3.2 16 5 3 8 22% 23149 103215 26840 68%
c u  1.17 23 154 0 2 415 27 2505 1495 3.2 16 5 3 8 22% 23155 103215 26840 68%
c v  1.19 23 154 0 2 415 27 2505 1386 3.2 16 5 3 8 22% 23155 103215 26840 68%
c w  1.21 23 154 0 2 415 27 2505 1386 3.2 16 5 3 8 22% 23155 103215 26840 68%
c x  1.23 25 154 0 2 415 27 2505 1386 3.2 16 5 3 8 22% 23254 102980 26840 68%
c =  1.31 25 154 0 2 415 27 2505 1386 3.2 16 5 3 8 22% 23276 102980 26829 68%
c
c  seconds   switched   rate       size/glue tier1    binary           remaining
c         MB  reductions conflicts       size  tier2      irredundant
c           level restarts    redundant    glue   trail           variables
c
c d  1.33 25 154 0 2 415 27 2505 1386 3.2 16 5 3 8 22% 23254 102980 26829 68%
c t  1.34 25 154 0 2 415 27 2505 1386 3.2 16 5 3 8 22% 23252 102980 26829 68%
c f  1.38 25 154 0 2 415 27 2505 1386 3.2 16 5 3 8 22% 23945 101735 27335 70%
c u  1.42 25 154 0 2 415 27 2505 1317 3.2 16 5 3 8 22% 23945 101735 27335 70%
c v  1.44 25 154 0 2 415 27 2505 1222 3.2 16 5 3 8 22% 23945 101735 27335 70%
c w  1.47 25 154 0 2 415 27 2505 1221 3.2 16 5 3 8 22% 23945 101735 27335 70%
c x  1.49 25 154 0 2 415 27 2505 1221 3.2 16 5 3 8 22% 23948 101728 27335 70%
c =  1.57 25 154 0 2 415 27 2505 1221 3.2 16 5 3 8 22% 24046 101728 27286 70%
c d  1.58 25 154 0 2 415 27 2505 1221 3.2 16 5 3 8 22% 23907 101728 27286 70%
c t  1.59 25 154 0 2 415 27 2505 1221 3.2 16 5 3 8 22% 23905 101728 27286 70%
c f  1.62 25 154 0 2 415 27 2505 1221 3.2 16 5 3 8 22% 24020 101541 27358 70%
c -  1.87 25 161 0 3 507 27 3415 1758 2.9 14 5 3 8 26% 24064 101540 27358 70%
c -  2.35 25 213 0 4 700 29 5148 2896 3.2 16 5 3 8 28% 24144 101538 27358 70%
c -  3.00 25 244 0 5 917 30 7149 4131 3.3 17 5 3 8 28% 24247 101532 27358 70%
c c  3.31 25 251 0 5 997 30 7716 4634 3.3 17 5 3 8 29% 24273 101501 27346 70%
c d  3.32 25 251 0 5 997 30 7716 4633 3.3 17 5 3 8 29% 24239 101501 27340 70%
c u  3.38 25 251 0 5 997 30 7716 3517 3.3 17 5 3 8 29% 24248 101501 27340 70%
c v  3.42 25 251 0 5 997 30 7716 3225 3.3 17 5 3 8 29% 24251 101501 27340 70%
c w  3.47 25 251 0 5 997 30 7716 3214 3.3 17 5 3 8 29% 24251 101501 27340 70%
c =  3.62 25 251 0 5 997 30 7716 3214 3.3 17 5 3 8 29% 24619 101498 27156 69%
c
c  seconds   switched   rate       size/glue tier1    binary           remaining
c         MB  reductions conflicts       size  tier2      irredundant
c           level restarts    redundant    glue   trail           variables
c
c d  3.64 25 251 0 5 997 30 7716 3213 3.3 17 5 3 8 29% 24146 101498 27156 69%
c t  3.66 25 251 0 5 997 30 7716 3213 3.3 17 5 3 8 29% 24142 101498 27156 69%
c f  3.73 25 251 0 5 997 30 7716 3213 3.3 17 5 3 8 29% 25150 99949 27694 71%
c u  3.79 25 251 0 5 997 30 7716 3012 3.3 17 5 3 8 29% 25151 99949 27694 71%
c v  3.82 25 251 0 5 997 30 7716 2944 3.3 17 5 3 8 29% 25151 99949 27694 71%
c w  3.86 25 251 0 5 997 30 7716 2937 3.3 17 5 3 8 29% 25151 99949 27694 71%
c x  3.90 25 251 0 5 997 30 7716 2937 3.3 17 5 3 8 29% 25158 99087 27694 71%
c =  4.08 25 251 0 5 997 30 7716 2937 3.3 17 5 3 8 29% 25672 99087 27437 70%
c d  4.09 25 251 0 5 997 30 7716 2916 3.3 17 5 3 8 29% 25105 99087 27437 70%
c t  4.11 25 251 0 5 997 30 7716 2916 3.3 17 5 3 8 29% 25098 99087 27437 70%
c f  4.17 25 251 0 5 997 30 7716 2916 3.3 17 5 3 8 29% 25240 98865 27508 70%
c -  4.59 25 273 0 6 1136 31 9386 3915 3.2 16 5 3 8 29% 25306 98863 27508 70%
c o  4.69 25 293 0 6 1173 31 10056 4500 3.2 16 5 3 8 29% 25344 98863 27508 70%
c -  5.34 25 287 0 7 1356 31 11836 5489 3.3 17 5 3 8 29% 25405 98863 27508 70%
c s  5.50 25 289 0 7 1392 31 12523 6060 3.3 17 5 3 8 29% 25449 97877 27508 70%
c e  5.62 25 289 0 7 1392 31 12523 6060 3.3 17 5 3 8 29% 23437 99742 26412 67%
c 2  5.62 25 289 0 7 1392 31 12523 6060 3.3 17 5 3 8 29% 23435 99742 26412 67%
c s  5.63 25 289 0 7 1392 31 12523 6060 3.3 17 5 3 8 29% 23440 99023 26412 67%
c e  5.65 25 289 0 7 1392 31 12523 6060 3.3 17 5 3 8 29% 22938 99361 26247 67%
c ^  5.65 25 289 0 7 1392 31 12523 6060 3.3 17 5 3 8 29% 22938 99361 26247 67%
c
c  seconds   switched    rate        size/glue tier1    binary          remaining
c         MB  reductions   conflicts       size  tier2      irredundant
c           level  restarts     redundant    glue   trail          variables
c
c -  5.98 25 292 0 8 1520 31 14482 6483 3.2 16 5 3 7 28% 23047 99347 26247 67%
c d  6.41 25 281 0 8 1666 30 15804 7662 3.2 16 5 3 7 28% 23022 99343 26205 67%
c u  6.49 25 281 0 8 1666 30 15804 5903 3.2 16 5 3 7 28% 23033 99343 26205 67%
c v  6.54 25 281 0 8 1666 30 15804 5481 3.2 16 5 3 7 28% 23034 99343 26205 67%
c w  6.59 25 281 0 8 1666 30 15804 5480 3.2 16 5 3 7 28% 23034 99343 26205 67%
c x  6.63 25 281 0 8 1666 30 15804 5475 3.2 16 5 3 7 28% 23063 97423 26205 67%
c =  6.84 25 281 0 8 1666 30 15804 5475 3.2 16 5 3 7 28% 24049 97423 25712 66%
c d  6.86 25 281 0 8 1666 30 15804 5436 3.2 16 5 3 7 28% 22779 97423 25711 66%
c t  6.88 25 281 0 8 1666 30 15804 5436 3.2 16 5 3 7 28% 22772 97423 25711 66%
c f  6.95 25 281 0 8 1666 30 15804 5436 3.2 16 5 3 7 28% 22793 97360 25729 66%
c c  7.05 25 281 0 8 1666 30 15804 5436 3.2 16 5 3 7 28% 22796 97356 25728 66%
c d  7.06 25 281 0 8 1666 30 15804 5436 3.2 16 5 3 7 28% 22794 97356 25728 66%
c u  7.13 25 281 0 8 1666 30 15804 5082 3.2 16 5 3 7 28% 22801 97356 25728 66%
c v  7.17 25 281 0 8 1666 30 15804 4983 3.2 16 5 3 7 28% 22801 97356 25728 66%
c w  7.23 25 281 0 8 1666 30 15804 4973 3.2 16 5 3 7 28% 22801 97356 25728 66%
c x  7.27 25 281 0 8 1666 30 15804 4963 3.2 16 5 3 7 28% 22845 96326 25728 66%
c =  7.47 25 281 0 8 1666 30 15804 4963 3.2 16 5 3 7 28% 23503 96326 25399 65%
c d  7.48 25 281 0 8 1666 30 15804 4944 3.2 16 5 3 7 28% 22700 96326 25399 65%
c t  7.50 25 281 0 8 1666 30 15804 4944 3.2 16 5 3 7 28% 22698 96326 25399 65%
c f  7.53 25 281 0 8 1666 30 15804 4944 3.2 16 5 3 7 28% 22694 96286 25411 65%
c
c  seconds   switched    rate        size/glue tier1    binary          remaining
c         MB  reductions   conflicts       size  tier2      irredundant
c           level  restarts     redundant    glue   trail          variables
c
c -  7.90 25 277 0 9 1799 30 17310 5325 3.2 16 5 2 7 28% 22738 96286 25411 65%
c o  8.41 25 281 0 9 1973 29 20056 7715 3.2 16 5 2 7 28% 22840 96285 25411 65%
c -  8.61 25 279 0 10 2038 30 20312 7005 3.3 17 5 2 7 28% 22847 96285 25411 65%
c -  9.51 25 269 0 11 2307 29 23474 8508 3.2 17 5 2 7 28% 22993 96275 25411 65%
c s  9.87 25 265 0 11 2406 29 25040 9884 3.2 17 5 2 7 28% 23056 95830 25411 65%
c e 10.04 25 265 0 11 2406 29 25040 9884 3.2 17 5 2 7 28% 19319 102067 22258 57%
c s 10.07 25 265 0 11 2406 29 25040 9884 3.2 17 5 2 7 28% 19646 100086 22258 57%
c e 10.12 25 265 0 11 2406 29 25040 9884 3.2 17 5 2 7 28% 19552 100231 22199 57%
c ^ 10.12 25 265 0 11 2406 29 25040 9884 3.2 17 5 2 7 28% 19552 100231 22199 57%
c - 10.67 25 269 0 12 2597 29 26790 8073 3.2 17 5 2 7 28% 19594 100228 22199 57%
c d 10.69 25 272 0 12 2599 29 26941 8202 3.2 17 5 2 7 28% 19543 100228 22164 56%
c u 10.75 25 272 0 12 2599 29 26941 6862 3.2 17 5 2 7 28% 19566 100228 22164 56%
c v 10.81 25 272 0 12 2599 29 26941 5948 3.2 17 5 2 7 28% 19566 100228 22164 56%
c w 10.82 25 272 0 12 2599 29 26941 5945 3.2 17 5 2 7 28% 19566 100228 22164 56%
c x 10.92 25 272 0 12 2599 29 26941 5931 3.2 17 5 2 7 28% 19642 98578 22164 56%
c = 11.21 25 272 0 12 2599 29 26941 5931 3.2 17 5 2 7 28% 21738 98578 21116 54%
c d 11.23 25 272 0 12 2599 29 26941 5822 3.2 17 5 2 7 28% 19552 98578 21116 54%
c t 11.26 25 272 0 12 2599 29 26941 5822 3.2 17 5 2 7 28% 19471 98578 21116 54%
c f 11.37 25 272 0 12 2599 29 26941 5822 3.2 17 5 2 7 28% 19693 97560 21338 54%
c u 11.44 25 272 0 12 2599 29 26941 5475 3.2 17 5 2 7 28% 19698 97560 21338 54%
c
c  seconds   switched     rate        size/glue tier1    binary          remaining
c         MB   reductions   conflicts       size  tier2      irredundant
c           level   restarts     redundant    glue   trail          variables
c
c v 11.49 25 272 0 12 2599 29 26941 5259 3.2 17 5 2 7 28% 19700 97560 21338 54%
c w 11.50 25 272 0 12 2599 29 26941 5256 3.2 17 5 2 7 28% 19700 97560 21338 54%
c x 11.64 25 272 0 12 2599 29 26941 5251 3.2 17 5 2 7 28% 19717 92353 21338 54%
c = 11.91 25 272 0 12 2599 29 26941 5251 3.2 17 5 2 7 28% 20957 92353 20718 53%
c d 11.93 25 272 0 12 2599 29 26941 5232 3.2 17 5 2 7 28% 19695 92353 20718 53%
c t 11.96 25 272 0 12 2599 29 26941 5232 3.2 17 5 2 7 28% 19629 92353 20718 53%
c f 12.03 25 272 0 12 2599 29 26941 5232 3.2 17 5 2 7 28% 19695 91996 20782 53%
c - 12.83 25 262 0 13 2923 28 30256 7236 3.2 17 5 2 7 28% 19761 91996 20782 53%
c - 13.68 25 252 0 14 3255 28 33861 9387 3.1 18 6 2 7 28% 19849 91996 20782 53%
c - 14.49 25 245 0 15 3568 27 37604 11044 3.1 18 6 2 6 28% 19953 91994 20782 53%
c o 14.91 25 244 0 15 3709 27 40058 13264 3.0 17 6 2 6 28% 20007 91991 20782 53%
c d 15.35 25 240 0 15 3851 27 41275 14317 3.0 17 6 2 6 28% 19972 91991 20745 53%
c u 15.45 25 240 0 15 3851 27 41275 12455 3.0 17 6 2 6 28% 19989 91991 20745 53%
c v 15.55 25 240 0 15 3851 27 41275 11408 3.0 17 6 2 6 28% 19989 91991 20745 53%
c w 15.61 25 240 0 15 3851 27 41275 11407 3.0 17 6 2 6 28% 19989 91991 20745 53%
c x 15.70 27 240 0 15 3851 27 41275 11397 3.0 17 6 2 6 28% 19989 88265 20745 53%
c = 16.01 27 240 0 15 3851 27 41275 11397 3.0 17 6 2 6 28% 20361 88265 20559 52%
c d 16.03 27 240 0 15 3851 27 41275 11353 3.0 17 6 2 6 28% 19890 88265 20558 52%
c t 16.06 27 240 0 15 3851 27 41275 11353 3.0 17 6 2 6 28% 19851 88265 20558 52%
c f 16.09 27 240 0 15 3851 27 41275 11353 3.0 17 6 2 6 28% 19859 88199 20571 52%
c
c  seconds   switched     rate         size/glue tier1    binary          remaining
c         MB   reductions   conflicts        size  tier2      irredundant
c           level   restarts      redundant    glue   trail          variables
c
c c 16.17 27 240 0 15 3851 27 41275 11353 3.0 17 6 2 6 28% 19865 88195 20570 52%
c d 16.18 27 240 0 15 3851 27 41275 11353 3.0 17 6 2 6 28% 19863 88195 20570 52%
c u 16.26 27 240 0 15 3851 27 41275 10904 3.0 17 6 2 6 28% 19869 88195 20570 52%
c v 16.35 27 240 0 15 3851 27 41275 10182 3.0 17 6 2 6 28% 19870 88195 20570 52%
c w 16.43 27 240 0 15 3851 27 41275 10166 3.0 17 6 2 6 28% 19870 88195 20570 52%
c x 16.52 27 240 0 15 3851 27 41275 10160 3.0 17 6 2 6 28% 19871 86640 20570 52%
c = 16.83 27 240 0 15 3851 27 41275 10160 3.0 17 6 2 6 28% 20107 86640 20452 52%
c d 16.84 27 240 0 15 3851 27 41275 10126 3.0 17 6 2 6 28% 19844 86640 20452 52%
c t 16.87 27 240 0 15 3851 27 41275 10126 3.0 17 6 2 6 28% 19835 86640 20452 52%
c f 16.90 27 240 0 15 3851 27 41275 10126 3.0 17 6 2 6 28% 19851 86556 20468 52%
c - 16.96 27 241 0 16 3859 27 41479 9001 3.0 17 6 2 6 28% 19855 86556 20468 52%
c - 17.95 27 235 0 17 4167 26 45479 11203 3.0 17 6 2 6 29% 19909 86555 20468 52%
c - 19.01 27 229 0 18 4526 26 49602 13342 2.9 17 6 2 6 29% 19981 86555 20468 52%
c s 19.62 27 229 0 18 4725 26 52172 15655 3.0 17 6 2 6 29% 20031 85476 20468 52%
c e 19.78 27 229 0 18 4725 26 52172 15655 3.0 17 6 2 6 29% 15071 93686 17918 46%
c 2 19.79 27 229 0 18 4725 26 52172 15655 3.0 17 6 2 6 29% 15067 93686 17918 46%
c s 19.82 27 229 0 18 4725 26 52172 15655 3.0 17 6 2 6 29% 15227 92276 17918 46%
c e 19.85 27 229 0 18 4725 26 52172 15655 3.0 17 6 2 6 29% 14722 92981 17745 45%
c ^ 19.85 27 229 0 18 4725 26 52172 15655 3.0 17 6 2 6 29% 14722 92981 17745 45%
c - 20.30 29 226 0 19 4873 25 53844 11953 2.9 17 6 2 6 29% 14751 92979 17745 45%
c
c  seconds   switched     rate         size/glue tier1    binary          remaining
c         MB   reductions   conflicts        size  tier2      irredundant
c           level   restarts      redundant    glue   trail          variables
c
c - 21.26 29 219 0 20 5208 25 58204 14031 2.8 16 6 2 6 29% 14799 92979 17745 45%
c d 21.38 29 218 0 20 5276 25 58903 14587 2.8 16 6 2 6 29% 14800 92979 17736 45%
c u 21.47 29 218 0 20 5276 25 58903 12269 2.8 16 6 2 6 29% 14810 92979 17736 45%
c v 21.57 29 218 0 20 5276 25 58903 10738 2.8 16 6 2 6 29% 14810 92979 17736 45%
c w 21.62 29 218 0 20 5276 25 58903 10709 2.8 16 6 2 6 29% 14810 92979 17736 45%
c x 21.74 29 218 0 20 5276 25 58903 10700 2.8 16 6 2 6 29% 14843 91784 17736 45%
c = 22.16 29 218 0 20 5276 25 58903 10700 2.8 16 6 2 6 29% 16181 91784 17067 43%
c d 22.17 29 218 0 20 5276 25 58903 10442 2.8 16 6 2 6 29% 14793 91784 17067 43%
c t 22.19 29 218 0 20 5276 25 58903 10442 2.8 16 6 2 6 29% 14642 91784 17067 43%
c f 22.34 29 218 0 20 5276 25 58903 10442 2.8 16 6 2 6 29% 14971 90630 17225 44%
c u 22.43 29 218 0 20 5276 25 58903 9665 2.8 16 6 2 6 29% 14979 90630 17225 44%
c v 22.50 29 218 0 20 5276 25 58903 9297 2.8 16 6 2 6 29% 14981 90630 17225 44%
c w 22.54 29 218 0 20 5276 25 58903 9279 2.8 16 6 2 6 29% 14981 90630 17225 44%
c x 22.73 29 218 0 20 5276 25 58903 9267 2.8 16 6 2 6 29% 15021 85831 17225 44%
c = 22.98 29 218 0 20 5276 25 58903 9267 2.8 16 6 2 6 29% 15129 85831 17171 44%
c d 22.99 29 218 0 20 5276 25 58903 9261 2.8 16 6 2 6 29% 15019 85831 17171 44%
c t 23.02 29 218 0 20 5276 25 58903 9261 2.8 16 6 2 6 29% 15007 85831 17171 44%
c f 23.04 29 218 0 20 5276 25 58903 9261 2.8 16 6 2 6 29% 15015 85794 17176 44%
c - 23.78 29 213 0 21 5606 24 62676 11247 2.8 16 6 2 6 29% 15058 85794 17176 44%
c - 24.34 29 207 0 22 5970 24 67258 13746 2.7 16 6 2 6 29% 15114 85793 17176 44%
c
c  seconds   switched     rate         size/glue tier1    binary          remaining
c         MB   reductions   conflicts        size  tier2      irredundant
c           level   restarts      redundant    glue   trail          variables
c
c o 24.72 29 203 0 22 6224 23 70183 16348 2.7 16 6 2 6 28% 15148 85792 17176 44%
c - 25.02 29 200 0 23 6384 23 71950 15780 2.7 16 6 2 6 28% 15169 85792 17176 44%
c - 25.71 29 198 0 24 6782 23 76745 17663 2.7 16 6 2 6 28% 15250 85790 17176 44%
c d 26.21 29 195 0 24 7097 23 79954 20488 2.7 16 6 2 6 28% 15251 85790 17158 44%
c u 26.29 29 195 0 24 7097 23 79954 17455 2.7 16 6 2 6 28% 15278 85790 17158 44%
c v 26.35 29 195 0 24 7097 23 79954 16291 2.7 16 6 2 6 28% 15278 85790 17158 44%
c w 26.40 29 195 0 24 7097 23 79954 16284 2.7 16 6 2 6 28% 15278 85790 17158 44%
c x 26.47 29 195 0 24 7097 23 79954 16278 2.7 16 6 2 6 28% 15299 84131 17158 44%
c = 26.80 29 195 0 24 7097 23 79954 16278 2.7 16 6 2 6 28% 15853 84118 16881 43%
c d 26.81 29 195 0 24 7097 23 79954 15995 2.7 16 6 2 6 28% 15251 84118 16881 43%
c t 26.82 29 195 0 24 7097 23 79954 15995 2.7 16 6 2 6 28% 15198 84118 16881 43%
c f 26.85 29 195 0 24 7097 23 79954 15995 2.7 16 6 2 6 28% 15222 84011 16896 43%
c u 26.92 29 195 0 24 7097 23 79954 15125 2.7 16 6 2 6 28% 15228 84011 16896 43%
c v 26.98 29 195 0 24 7097 23 79954 13877 2.7 16 6 2 6 28% 15229 84011 16896 43%
c w 27.04 29 195 0 24 7097 23 79954 13870 2.7 16 6 2 6 28% 15229 84011 16896 43%
c x 27.12 29 195 0 24 7097 23 79954 13867 2.7 16 6 2 6 28% 15256 82536 16896 43%
c = 27.45 29 195 0 24 7097 23 79954 13867 2.7 16 6 2 6 28% 15592 82512 16726 43%
c d 27.46 29 195 0 24 7097 23 79954 13741 2.7 16 6 2 6 28% 15249 82512 16726 43%
c t 27.47 29 195 0 24 7097 23 79954 13741 2.7 16 6 2 6 28% 15226 82512 16726 43%
c f 27.49 29 195 0 24 7097 23 79954 13741 2.7 16 6 2 6 28% 15255 82396 16742 43%
c
c  seconds   switched     rate         size/glue tier1    binary          remaining
c         MB   reductions   conflicts        size  tier2      irredundant
c           level   restarts      redundant    glue   trail          variables
c
c - 27.77 29 194 0 25 7257 23 81645 13581 2.7 16 6 2 6 28% 15271 82394 16742 43%
c - 28.56 29 190 0 26 7780 23 86645 16193 2.7 16 6 2 6 29% 15328 82392 16742 43%
c - 29.29 29 186 0 27 8236 22 91744 18535 2.7 16 6 2 5 29% 15375 82389 16742 43%
c s 29.90 29 184 0 27 8616 22 95830 22136 2.7 16 6 2 5 28% 15431 81240 16742 43%
c e 30.02 29 184 0 27 8616 22 95830 22136 2.7 16 6 2 5 28% 11002 93318 14052 36%
c 2 30.03 29 184 0 27 8616 22 95830 22136 2.7 16 6 2 5 28% 10992 93318 14052 36%
c s 30.06 29 184 0 27 8616 22 95830 22136 2.7 16 6 2 5 28% 11078 91592 14052 36%
c e 30.09 29 184 0 27 8616 22 95830 22136 2.7 16 6 2 5 28% 10904 91961 13973 36%
c ^ 30.09 29 184 0 27 8616 22 95830 22136 2.7 16 6 2 5 28% 10904 91961 13973 36%
c - 30.24 29 183 0 28 8701 22 96940 14410 2.7 16 6 2 5 28% 10919 91961 13973 36%
c - 30.93 29 178 0 29 9238 22 102231 17095 2.6 16 6 2 5 28% 10961 91961 13973 36%
c c 31.27 29 176 0 29 9430 22 104560 19061 2.6 16 6 2 5 28% 11040 91778 13937 36%
c d 31.28 29 176 0 29 9430 22 104560 18896 2.6 16 6 2 5 28% 10968 91778 13937 36%
c u 31.35 29 176 0 29 9430 22 104560 15926 2.6 16 6 2 5 28% 10989 91778 13937 36%
c v 31.42 29 176 0 29 9430 22 104560 13981 2.6 16 6 2 5 28% 10989 91778 13937 36%
c w 31.50 29 176 0 29 9430 22 104560 13916 2.6 16 6 2 5 28% 10989 91778 13937 36%
c x 31.56 29 176 0 29 9430 22 104560 13915 2.6 16 6 2 5 28% 10991 91532 13937 36%
c = 31.97 29 176 0 29 9430 22 104560 13915 2.6 16 6 2 5 28% 11531 91512 13664 35%
c d 31.98 29 176 0 29 9430 22 104560 13635 2.6 16 6 2 5 28% 10969 91512 13664 35%
c t 31.99 29 176 0 29 9430 22 104560 13635 2.6 16 6 2 5 28% 10862 91512 13664 35%
c
c  seconds   switched     rate          size/glue tier1    binary          remaining
c         MB   reductions   conflicts         size  tier2      irredundant
c           level   restarts       redundant    glue   trail          variables
c
c f 32.11 29 176 0 29 9430 22 104560 13635 2.6 16 6 2 5 28% 10850 91242 13693 35%
c u 32.17 29 176 0 29 9430 22 104560 12818 2.6 16 6 2 5 28% 10856 91242 13693 35%
c v 32.21 29 176 0 29 9430 22 104560 12405 2.6 16 6 2 5 28% 10856 91242 13693 35%
c w 32.31 29 176 0 29 9430 22 104560 12198 2.6 16 6 2 5 28% 10856 91242 13693 35%
c x 32.40 29 176 0 29 9430 22 104560 12198 2.6 16 6 2 5 28% 10856 90882 13693 35%
c = 32.79 29 176 0 29 9430 22 104560 12198 2.6 16 6 2 5 28% 10866 90882 13688 35%
c d 32.79 29 176 0 29 9430 22 104560 12195 2.6 16 6 2 5 28% 10854 90882 13688 35%
c t 32.81 29 176 0 29 9430 22 104560 12195 2.6 16 6 2 5 28% 10852 90882 13688 35%
c - 33.23 29 174 0 30 9715 22 107617 13422 2.6 16 6 2 5 28% 10873 90882 13688 35%
c o 33.69 29 172 0 30 10026 22 110183 15786 2.6 16 6 2 5 28% 10886 90882 13688 35%
c - 34.20 29 171 0 31 10379 22 113094 16333 2.6 16 6 2 5 28% 10895 90882 13688 35%
c - 34.99 30 169 0 32 10824 22 118661 18787 2.6 16 6 2 5 28% 10934 90882 13688 35%
c - 35.81 30 166 0 33 11339 22 124317 20743 2.6 16 6 2 5 28% 10973 90882 13688 35%
c - 36.65 30 165 0 34 11858 22 130061 22514 2.6 16 6 2 5 28% 11014 90882 13688 35%
c d 37.13 30 163 0 34 12157 22 132786 24908 2.6 17 6 2 5 28% 10986 90882 13665 35%
c u 37.24 30 163 0 34 12157 22 132786 21349 2.6 17 6 2 5 28% 11002 90882 13665 35%
c v 37.34 30 163 0 34 12157 22 132786 18908 2.6 17 6 2 5 28% 11005 90882 13665 35%
c w 37.41 30 163 0 34 12157 22 132786 18908 2.6 17 6 2 5 28% 11004 90882 13665 35%
c x 37.52 30 163 0 34 12157 22 132786 18876 2.6 17 6 2 5 28% 11012 86141 13665 35%
c = 38.01 30 163 0 34 12157 22 132786 18876 2.6 17 6 2 5 28% 11438 86141 13452 34%
c
c  seconds   switched      rate          size/glue tier1    binary          remaining
c         MB   reductions    conflicts         size  tier2      irredundant
c           level   restarts        redundant    glue   trail          variables
c
c d 38.02 30 163 0 34 12157 22 132786 18473 2.6 17 6 2 5 28% 10983 86141 13452 34%
c t 38.03 30 163 0 34 12157 22 132786 18473 2.6 17 6 2 5 28% 10931 86141 13452 34%
c f 38.05 30 163 0 34 12157 22 132786 18473 2.6 17 6 2 5 28% 10942 86079 13457 34%
c u 38.17 30 163 0 34 12157 22 132786 17231 2.6 17 6 2 5 28% 10951 86079 13457 34%
c v 38.22 30 163 0 34 12157 22 132786 16635 2.6 17 6 2 5 28% 10952 86079 13457 34%
c w 38.33 30 163 0 34 12157 22 132786 16437 2.6 17 6 2 5 28% 10952 86079 13457 34%
c x 38.44 30 163 0 34 12157 22 132786 16427 2.6 17 6 2 5 28% 10971 83726 13457 34%
c = 38.92 30 163 0 34 12157 22 132786 16427 2.6 17 6 2 5 28% 11009 83726 13438 34%
c d 38.93 30 163 0 34 12157 22 132786 16371 2.6 17 6 2 5 28% 10967 83726 13438 34%
c t 38.94 30 163 0 34 12157 22 132786 16371 2.6 17 6 2 5 28% 10954 83726 13438 34%
c - 39.37 30 161 0 35 12390 21 135891 17051 2.6 17 6 2 5 29% 10966 83726 13438 34%
c - 40.17 30 160 0 36 12887 21 141807 19954 2.6 17 6 2 5 29% 10994 83724 13438 34%
c - 41.07 30 158 0 37 13471 21 147807 22518 2.6 17 7 2 5 29% 11026 83721 13438 34%
c i 41.20 30 158 0 37 13548 21 148543 23187 2.6 17 7 2 5 29% 11034 83721 13437 34%
c - 42.01 30 157 0 38 14045 21 153889 24609 2.6 17 7 2 5 29% 11056 83721 13437 34%
c i 42.10 30 157 0 38 14110 21 154390 25052 2.6 17 7 2 5 29% 11065 83721 13435 34%
c i 42.63 30 156 0 38 14446 21 157722 28058 2.6 17 7 2 5 29% 11083 83721 13434 34%
c s 42.65 30 156 0 38 14446 21 157856 28169 2.6 17 7 2 5 29% 11086 83277 13434 34%
c e 42.79 30 156 0 38 14446 21 157856 28169 2.6 17 7 2 5 29% 7564 99113 11323 29%
c 2 42.79 30 156 0 38 14446 21 157856 28169 2.6 17 7 2 5 29% 7557 99113 11323 29%
c
c  seconds   switched      rate          size/glue tier1    binary         remaining
c         MB   reductions    conflicts         size  tier2     irredundant
c           level   restarts        redundant    glue   trail         variables
c
c s 42.83 30 156 0 38 14446 21 157856 28169 2.6 17 7 2 5 29% 7585 96836 11323 29%
c e 42.87 30 156 0 38 14446 21 157856 28169 2.6 17 7 2 5 29% 7420 97424 11250 29%
c ^ 42.87 30 156 0 38 14446 21 157856 28169 2.6 17 7 2 5 29% 7420 97424 11250 29%
c i 43.01 30 155 0 38 14549 21 158851 19934 2.6 17 7 2 5 29% 7428 97424 11249 29%
c - 43.22 30 154 0 39 14675 21 160053 18714 2.6 17 7 2 5 29% 7429 97414 11249 29%
c o 43.25 30 154 0 39 14700 21 160186 18836 2.6 17 7 2 5 29% 7429 97414 11249 29%
c i 43.37 30 154 0 39 14773 21 161485 19986 2.6 17 7 2 5 29% 7436 97413 11248 29%
c d 43.74 30 151 0 39 14975 21 164742 22862 2.6 17 7 2 5 29% 7446 97405 11247 29%
c d 43.75 30 151 0 39 14975 21 164742 22852 2.6 17 7 2 5 29% 7442 97405 11245 29%
c u 43.84 30 151 0 39 14975 21 164742 19736 2.6 17 7 2 5 29% 7466 97405 11244 29%
c v 43.91 30 151 0 39 14975 21 164742 17429 2.6 17 7 2 5 29% 7461 97405 11244 29%
c w 44.01 30 151 0 39 14975 21 164742 17397 2.6 17 7 2 5 29% 7461 97405 11244 29%
c x 44.09 30 151 0 39 14975 21 164742 17397 2.6 17 7 2 5 29% 7466 97294 11244 29%
c = 44.60 30 151 0 39 14975 21 164742 17397 2.6 17 7 2 5 29% 7585 97257 11181 28%
c d 44.61 30 151 0 39 14975 21 164742 17263 2.6 17 7 2 5 29% 7454 97257 11181 28%
c t 44.62 30 151 0 39 14975 21 164742 17263 2.6 17 7 2 5 29% 7374 97257 11181 28%
c f 44.76 30 151 0 39 14975 21 164742 17263 2.6 17 7 2 5 29% 7334 96648 11209 29%
c u 44.85 30 151 0 39 14975 21 164742 16645 2.6 17 7 2 5 29% 7337 96648 11209 29%
c v 44.90 30 151 0 39 14975 21 164742 16222 2.6 17 7 2 5 29% 7337 96648 11209 29%
c w 45.10 30 151 0 39 14975 21 164742 15818 2.6 17 7 2 5 29% 7337 96648 11209 29%
c
c  seconds   switched      rate          size/glue tier1    binary         remaining
c         MB   reductions    conflicts         size  tier2     irredundant
c           level   restarts        redundant    glue   trail         variables
c
c = 45.63 30 151 0 39 14975 21 164742 15818 2.6 17 7 2 5 29% 7400 96549 11165 28%
c d 45.64 30 151 0 39 14975 21 164742 15671 2.6 17 7 2 5 29% 7342 96527 11165 28%
c t 45.65 30 151 0 39 14975 21 164742 15671 2.6 17 7 2 5 29% 7336 96527 11165 28%
c i 45.70 30 151 0 39 14975 21 164742 15671 2.6 17 7 2 5 29% 7336 96527 11165 28%
c i 45.76 30 151 0 39 14999 21 165396 16195 2.5 17 7 2 5 29% 7345 96527 11164 28%
c - 45.89 30 151 0 40 15082 21 166298 15051 2.5 17 7 2 5 29% 7319 96527 11164 28%
c - 46.51 30 147 0 41 15505 20 172624 18222 2.5 17 7 2 5 29% 7337 96522 11164 28%
c i 46.64 30 147 0 41 15577 20 174083 19558 2.5 17 7 2 5 29% 7343 96522 11162 28%
c i 46.73 30 146 0 41 15634 20 175483 20770 2.5 17 7 2 5 29% 7352 96521 11159 28%
c - 47.02 30 144 0 42 15808 19 179027 20583 2.5 17 7 2 5 29% 7356 96520 11159 28%
c - 47.46 31 140 0 43 16127 19 185510 22513 2.4 16 7 2 5 28% 7380 96520 11159 28%
c i 47.64 31 139 0 43 16278 18 187473 24187 2.4 16 7 2 5 28% 7397 96520 11157 28%
c i 47.67 31 139 0 43 16301 18 188006 24652 2.4 16 7 2 5 28% 7400 96520 11156 28%
c i 47.91 31 137 0 43 16463 18 190726 27081 2.4 16 7 2 5 28% 7409 96520 11155 28%
c i 47.98 31 137 0 43 16528 18 191699 27916 2.4 16 7 2 5 27% 7417 96518 11154 28%
c - 48.02 31 136 0 44 16550 18 192067 23402 2.4 16 7 2 5 27% 7406 96518 11154 28%
c i 48.03 31 136 0 44 16559 18 192383 23642 2.4 16 7 2 5 27% 7411 96518 11152 28%
c - 48.26 31 131 0 45 16773 17 198701 25000 2.4 16 7 2 5 26% 7442 96518 11152 28%
c d 48.36 31 130 0 45 16881 17 200519 26031 2.4 16 7 2 5 26% 7397 96397 11112 28%
c d 48.36 31 130 0 45 16881 17 200519 26015 2.4 16 7 2 5 26% 7369 96397 11098 28%
c
c  seconds   switched      rate          size/glue tier1    binary         remaining
c         MB   reductions    conflicts         size  tier2     irredundant
c           level   restarts        redundant    glue   trail         variables
c
c b 48.36 31 130 0 45 16881 17 200519 26015 2.4 16 7 2 5 26% 7369 96397 11096 28%
c u 48.42 31 130 0 45 16881 17 200519 24210 2.4 16 7 2 5 26% 7375 96397 11096 28%
c v 48.48 31 130 0 45 16881 17 200519 23202 2.4 16 7 2 5 26% 7375 96397 11096 28%
c w 48.50 31 130 0 45 16881 17 200519 23182 2.4 16 7 2 5 26% 7375 96397 11096 28%
c x 48.56 31 130 0 45 16881 17 200519 23181 2.4 16 7 2 5 26% 7381 96343 11096 28%
c = 48.89 31 130 0 45 16881 17 200519 23181 2.4 16 7 2 5 26% 7431 96330 11070 28%
c d 48.90 31 130 0 45 16881 17 200519 22934 2.4 16 7 2 5 26% 7364 96330 11070 28%
c t 48.91 31 130 0 45 16881 17 200519 22934 2.4 16 7 2 5 26% 7338 96330 11070 28%
c u 49.05 31 130 0 45 16881 17 200519 20855 2.4 16 7 2 5 26% 7341 96330 11070 28%
c v 49.12 31 130 0 45 16881 17 200519 19168 2.4 16 7 2 5 26% 7343 96330 11069 28%
c w 49.17 31 130 0 45 16881 17 200519 18855 2.4 16 7 2 5 26% 7343 96330 11069 28%
c = 49.50 31 130 0 45 16881 17 200519 18855 2.4 16 7 2 5 26% 7397 96212 11031 28%
c d 49.51 31 130 0 45 16881 17 200519 18565 2.4 16 7 2 5 26% 7367 96212 11031 28%
c t 49.52 31 130 0 45 16881 17 200519 18565 2.4 16 7 2 5 26% 7339 96212 11031 28%
c i 49.53 31 130 0 45 16881 17 200519 18565 2.4 16 7 2 5 26% 7339 96212 11031 28%
c i 49.53 31 130 0 45 16884 17 200602 18615 2.4 16 7 2 5 26% 7346 96212 11030 28%
c i 49.53 31 129 0 45 16884 17 200687 18659 2.4 16 7 2 5 26% 7354 96210 11029 28%
c i 49.53 31 129 0 45 16884 17 200711 18675 2.4 16 7 2 5 26% 7355 96210 11025 28%
c i 49.53 31 129 0 45 16884 17 200712 18675 2.4 16 7 2 5 26% 7355 96210 11024 28%
c i 49.53 31 129 0 45 16884 17 200714 18675 2.4 16 7 2 5 26% 7356 96210 11023 28%
c
c  seconds   switched      rate          size/glue tier1    binary         remaining
c         MB   reductions    conflicts         size  tier2     irredundant
c           level   restarts        redundant    glue   trail         variables
c
c } 49.53 31 129 0 45 16884 17 200716 18675 2.4 16 7 2 5 26% 7356 96210 11007 28%
c 0 49.53 31 129 0 45 16884 17 200716 18675 2.4 16 7 2 5 26% 7356 96210 11007 28%
c
c ---- [ result ] ------------------------------------------------------------
c
s UNSATISFIABLE
c
c ---- [ profiling ] ---------------------------------------------------------
c
c          32.72   66.06 %  search
c          32.72   66.06 %  focused
c          16.39   33.09 %  simplify
c          15.40   31.09 %  probe
c           6.93   13.98 %  sweep
c           5.50   11.11 %  vivify
c           1.27    2.57 %  factor
c           1.21    2.44 %  eliminate
c           0.82    1.65 %  substitute
c           0.54    1.09 %  congruence
c           0.35    0.70 %  preprocess
c           0.29    0.58 %  reduce
c           0.26    0.53 %  subsume
c           0.22    0.44 %  transitive
c           0.12    0.25 %  backbone
c           0.12    0.24 %  fastel
c           0.05    0.10 %  lucky
c           0.03    0.06 %  parse
c =============================================
c          49.53  100.00 %  total
c
c ---- [ statistics ] --------------------------------------------------------
c
c chronological:                         5696                3 %  conflicts
c conflicts:                           200716             4052.10 per second
c congruent:                             4484               11 %  variables
c decisions:                          3777111               18.82 per conflict
c eliminated:                           21002               54 %  variables
c factored:                              2780                7 %  variables
c fast_eliminated:                       8853               42 %  eliminated
c fast_strengthened:                       70                1 %  per strengthened
c fast_subsumed:                           18                0 %  per subsumed
c iterations:                              19                0 %  variables
c propagations:                     189869493          3833130    per second
c reductions:                              45             4460    interval
c reordered:                                6            33453    interval
c restarts:                             16884               12    interval
c strengthened:                          8241                0 %  checks
c substituted:                           9933               25 %  variables
c subsumed:                             11592                0 %  checks
c switched:                                 0                0    interval
c vivified:                            110568               16 %  checks
c
c ---- [ glue usage ] --------------------------------------------------------
c
c focused glue 2 used 107485 clauses 24.50% accumulated 69.69% tier1
c focused glue 3 used  53283 clauses 12.15% accumulated 81.84%
c focused glue 4 used  24190 clauses  5.51% accumulated 87.35%
c focused glue 5 used  14419 clauses  3.29% accumulated 90.64% tier2
c
c ---- [ resources ] ---------------------------------------------------------
c
c maximum-resident-set-size:         32718848 bytes         31 MB
c process-time:                            50s              49.53 seconds
c
c ---- [ shutting down ] -----------------------------------------------------
c
c exit 20
